Gurobi Optimizer version 10.0.3 build v10.0.3rc0 (win64)

CPU model: 13th Gen Intel(R) Core(TM) i7-13700T, instruction set [SSE2|AVX|AVX2]
Thread count: 16 physical cores, 24 logical processors, using up to 24 threads

Optimize a model with 684865 rows, 1021529 columns and 1986145 nonzeros
Model fingerprint: 0xe1387b79
Variable types: 0 continuous, 1021529 integer (221400 binary)
Coefficient statistics:
  Matrix range     [1e+00, 1e+00]
  Objective range  [6e+00, 3e+02]
  Bounds range     [1e+00, 1e+00]
  RHS range        [1e+00, 6e+02]
Presolve removed 684865 rows and 1021529 columns
Presolve time: 0.69s
Presolve: All rows and columns removed

Explored 0 nodes (0 simplex iterations) in 0.90 seconds (1.66 work units)
Thread count was 1 (of 24 available processors)

Solution count 1: 152354 

Optimal solution found (tolerance 1.00e-04)
Best objective 1.523538900000e+05, best bound 1.523538900000e+05, gap 0.0000%
Valor da função objetivo:  152353.89

Tempo para criar o modelo:  15.224125862121582
